NAME : in_house_8_24
TYPE : TSP
DIMENSION : 8
EDGE_WEIGHT_TYPE : EXPLICIT
EDGE_WEIGHT_FORMAT : UPPER_ROW
COMMENT : INVERSION_SHIFT=1
EDGE_WEIGHT_SECTION
25
42
29
29
57
60
56
8
43
47
46
41
64
39
29
34
62
26
29
40
49
54
52
12
59
12
61
50
